VRPTWMS/instances/mip/fuel/5/N5-C_DV100-C_SV25_F5_8_No_1.lp
\ N5-C_DV100-C_SV25_F5_8

Minimize
  15.13 x_d0_c1 + 15.13 z_d0_c1 + 9.49 x_d0_c2 + 9.49 z_d0_c2 + 30.87 x_d0_c3 + 30.87 z_d0_c3 + 14.76 x_d0_c4 + 14.76 z_d0_c4 + 12.81 x_d0_c5 + 12.81 z_d0_c5 + 7.81 x_c1_c2 + 7.81 x_c2_c1 + 7.81 z_c1_c2 + 7.81 z_c2_c1 + 38.21 x_c1_c3 + 38.21 x_c3_c1 + 38.21 z_c1_c3 + 38.21 z_c3_c1 + 24.6 x_c1_c4 + 24.6 x_c4_c1 + 24.6 z_c1_c4 + 24.6 z_c4_c1 + 13.89 x_c1_c5 + 13.89 x_c5_c1 + 13.89 z_c1_c5 + 13.89 z_c5_c1 + 38.01 x_c2_c3 + 38.01 x_c3_c2 + 38.01 z_c2_c3 + 38.01 z_c3_c2 + 22.63 x_c2_c4 + 22.63 x_c4_c2 + 22.63 z_c2_c4 + 22.63 z_c4_c2 + 7.07 x_c2_c5 + 7.07 x_c5_c2 + 7.07 z_c2_c5 + 7.07 z_c5_c2 + 16.16 x_c3_c4 + 16.16 x_c4_c3 + 16.16 z_c3_c4 + 16.16 z_c4_c3 + 43.42 x_c3_c5 + 43.42 x_c5_c3 + 43.42 z_c3_c5 + 43.42 z_c5_c3 + 27.46 x_c4_c5 + 27.46 x_c5_c4 + 27.46 z_c4_c5 + 27.46 z_c5_c4 + 15.13 x_c1_dN + 15.13 z_c1_dN + 9.49 x_c2_dN + 9.49 z_c2_dN + 30.87 x_c3_dN + 30.87 z_c3_dN + 14.76 x_c4_dN + 14.76 z_c4_dN + 12.81 x_c5_dN + 12.81 z_c5_dN + 1000.0 x_d0_c1 + 1000.0 z_d0_c1 + 1000.0 x_d0_c2 + 1000.0 z_d0_c2 + 1000.0 x_d0_c3 + 1000.0 z_d0_c3 + 1000.0 x_d0_c4 + 1000.0 z_d0_c4 + 1000.0 x_d0_c5 + 1000.0 z_d0_c5
Subject To
  Successor_DV_c1: x_c1_c2 + x_c1_c3 + x_c1_c4 + x_c1_c5 + x_c1_dN = 1
  Successor_DV_c2: x_c2_c1 + x_c2_c3 + x_c2_c4 + x_c2_c5 + x_c2_dN = 1
  Successor_DV_c3: x_c3_c1 + x_c3_c2 + x_c3_c4 + x_c3_c5 + x_c3_dN = 1
  Successor_DV_c4: x_c4_c1 + x_c4_c2 + x_c4_c3 + x_c4_c5 + x_c4_dN = 1
  Successor_DV_c5: x_c5_c1 + x_c5_c2 + x_c5_c3 + x_c5_c4 + x_c5_dN = 1
  Successor_SV_c1: z_c1_c2 + z_c1_c3 + z_c1_c4 + z_c1_c5 + z_c1_dN <= 1
  Successor_SV_c2: z_c2_c1 + z_c2_c3 + z_c2_c4 + z_c2_c5 + z_c2_dN <= 1
  Successor_SV_c3: z_c3_c1 + z_c3_c2 + z_c3_c4 + z_c3_c5 + z_c3_dN <= 1
  Successor_SV_c4: z_c4_c1 + z_c4_c2 + z_c4_c3 + z_c4_c5 + z_c4_dN <= 1
  Successor_SV_c5: z_c5_c1 + z_c5_c2 + z_c5_c3 + z_c5_c4 + z_c5_dN <= 1
  Flow_DV_c1: x_d0_c1 + x_c2_c1 + x_c3_c1 + x_c4_c1 + x_c5_c1 - x_c1_dN - x_c1_c2 - x_c1_c3 - x_c1_c4 - x_c1_c5 = 0
  Flow_DV_c2: x_d0_c2 + x_c1_c2 + x_c3_c2 + x_c4_c2 + x_c5_c2 - x_c2_dN - x_c2_c1 - x_c2_c3 - x_c2_c4 - x_c2_c5 = 0
  Flow_DV_c3: x_d0_c3 + x_c1_c3 + x_c2_c3 + x_c4_c3 + x_c5_c3 - x_c3_dN - x_c3_c1 - x_c3_c2 - x_c3_c4 - x_c3_c5 = 0
  Flow_DV_c4: x_d0_c4 + x_c1_c4 + x_c2_c4 + x_c3_c4 + x_c5_c4 - x_c4_dN - x_c4_c1 - x_c4_c2 - x_c4_c3 - x_c4_c5 = 0
  Flow_DV_c5: x_d0_c5 + x_c1_c5 + x_c2_c5 + x_c3_c5 + x_c4_c5 - x_c5_dN - x_c5_c1 - x_c5_c2 - x_c5_c3 - x_c5_c4 = 0
  Flow_SV_c1: z_d0_c1 + z_c2_c1 + z_c3_c1 + z_c4_c1 + z_c5_c1 - z_c1_dN - z_c1_c2 - z_c1_c3 - z_c1_c4 - z_c1_c5 = 0
  Flow_SV_c2: z_d0_c2 + z_c1_c2 + z_c3_c2 + z_c4_c2 + z_c5_c2 - z_c2_dN - z_c2_c1 - z_c2_c3 - z_c2_c4 - z_c2_c5 = 0
  Flow_SV_c3: z_d0_c3 + z_c1_c3 + z_c2_c3 + z_c4_c3 + z_c5_c3 - z_c3_dN - z_c3_c1 - z_c3_c2 - z_c3_c4 - z_c3_c5 = 0
  Flow_SV_c4: z_d0_c4 + z_c1_c4 + z_c2_c4 + z_c3_c4 + z_c5_c4 - z_c4_dN - z_c4_c1 - z_c4_c2 - z_c4_c3 - z_c4_c5 = 0
  Flow_SV_c5: z_d0_c5 + z_c1_c5 + z_c2_c5 + z_c3_c5 + z_c4_c5 - z_c5_dN - z_c5_c1 - z_c5_c2 - z_c5_c3 - z_c5_c4 = 0
  travelDV_d0_c1: tauD_d0 - tauD_c1 + 103.7825 x_d0_c1 <= 100.0
  travelDV_d0_c2: tauD_d0 - tauD_c2 + 102.3725 x_d0_c2 <= 100.0
  travelDV_d0_c3: tauD_d0 - tauD_c3 + 107.7175 x_d0_c3 <= 100.0
  travelDV_d0_c4: tauD_d0 - tauD_c4 + 103.69 x_d0_c4 <= 100.0
  travelDV_d0_c5: tauD_d0 - tauD_c5 + 103.2025 x_d0_c5 <= 100.0
  travelDV_c1_c2: tauD_c1 - tauD_c2 + 109.9525 x_c1_c2 + 8.0 p_1 <= 100.0
  travelDV_c1_c3: tauD_c1 - tauD_c3 + 117.5525 x_c1_c3 + 8.0 p_1 <= 100.0
  travelDV_c1_c4: tauD_c1 - tauD_c4 + 114.15 x_c1_c4 + 8.0 p_1 <= 100.0
  travelDV_c1_c5: tauD_c1 - tauD_c5 + 111.4725 x_c1_c5 + 8.0 p_1 <= 100.0
  travelDV_c2_c1: tauD_c2 - tauD_c1 + 104.9525 x_c2_c1 + 8.0 p_2 <= 100.0
  travelDV_c2_c3: tauD_c2 - tauD_c3 + 112.5025 x_c2_c3 + 8.0 p_2 <= 100.0
  travelDV_c2_c4: tauD_c2 - tauD_c4 + 108.6575 x_c2_c4 + 8.0 p_2 <= 100.0
  travelDV_c2_c5: tauD_c2 - tauD_c5 + 104.7675 x_c2_c5 + 8.0 p_2 <= 100.0
  travelDV_c3_c1: tauD_c3 - tauD_c1 + 116.5525 x_c3_c1 + 8.0 p_3 <= 100.0
  travelDV_c3_c2: tauD_c3 - tauD_c2 + 116.5025 x_c3_c2 + 8.0 p_3 <= 100.0
  travelDV_c3_c4: tauD_c3 - tauD_c4 + 111.04 x_c3_c4 + 8.0 p_3 <= 100.0
  travelDV_c3_c5: tauD_c3 - tauD_c5 + 117.855 x_c3_c5 + 8.0 p_3 <= 100.0
  travelDV_c4_c1: tauD_c4 - tauD_c1 + 109.15 x_c4_c1 + 8.0 p_4 <= 100.0
  travelDV_c4_c2: tauD_c4 - tauD_c2 + 108.6575 x_c4_c2 + 8.0 p_4 <= 100.0
  travelDV_c4_c3: tauD_c4 - tauD_c3 + 107.04 x_c4_c3 + 8.0 p_4 <= 100.0
  travelDV_c4_c5: tauD_c4 - tauD_c5 + 109.865 x_c4_c5 + 8.0 p_4 <= 100.0
  travelDV_c5_c1: tauD_c5 - tauD_c1 + 105.4725 x_c5_c1 + 8.0 p_5 <= 100.0
  travelDV_c5_c2: tauD_c5 - tauD_c2 + 103.7675 x_c5_c2 + 8.0 p_5 <= 100.0
  travelDV_c5_c3: tauD_c5 - tauD_c3 + 112.855 x_c5_c3 + 8.0 p_5 <= 100.0
  travelDV_c5_c4: tauD_c5 - tauD_c4 + 108.865 x_c5_c4 + 8.0 p_5 <= 100.0
  TravelSV_d0_c1: tauS_d0 - tauS_c1 + 100.0 z_d0_c1 <= 96.2175
  TravelSV_d0_c2: tauS_d0 - tauS_c2 + 100.0 z_d0_c2 <= 97.6275
  TravelSV_d0_c3: tauS_d0 - tauS_c3 + 100.0 z_d0_c3 <= 92.2825
  TravelSV_d0_c4: tauS_d0 - tauS_c4 + 100.0 z_d0_c4 <= 96.31
  TravelSV_d0_c5: tauS_d0 - tauS_c5 + 100.0 z_d0_c5 <= 96.7975
  TravelSV_d0_dN: tauS_d0 - tauS_dN + 100.0 z_d0_dN <= 100.0
  TravelSV_c1_c2: tauS_c1 - tauS_c2 + 100.0 z_c1_c2 <= 90.0475
  TravelSV_c1_c3: tauS_c1 - tauS_c3 + 100.0 z_c1_c3 <= 82.4475
  TravelSV_c1_c4: tauS_c1 - tauS_c4 + 100.0 z_c1_c4 <= 85.85
  TravelSV_c1_c5: tauS_c1 - tauS_c5 + 100.0 z_c1_c5 <= 88.5275
  TravelSV_c1_dN: tauS_c1 - tauS_dN + 100.0 z_c1_dN <= 88.2175
  TravelSV_c2_c1: tauS_c2 - tauS_c1 + 100.0 z_c2_c1 <= 90.0475
  TravelSV_c2_c3: tauS_c2 - tauS_c3 + 100.0 z_c2_c3 <= 82.4975
  TravelSV_c2_c4: tauS_c2 - tauS_c4 + 100.0 z_c2_c4 <= 86.3425
  TravelSV_c2_c5: tauS_c2 - tauS_c5 + 100.0 z_c2_c5 <= 90.2325
  TravelSV_c2_dN: tauS_c2 - tauS_dN + 100.0 z_c2_dN <= 89.6275
  TravelSV_c3_c1: tauS_c3 - tauS_c1 + 100.0 z_c3_c1 <= 82.4475
  TravelSV_c3_c2: tauS_c3 - tauS_c2 + 100.0 z_c3_c2 <= 82.4975
  TravelSV_c3_c4: tauS_c3 - tauS_c4 + 100.0 z_c3_c4 <= 87.96
  TravelSV_c3_c5: tauS_c3 - tauS_c5 + 100.0 z_c3_c5 <= 81.145
  TravelSV_c3_dN: tauS_c3 - tauS_dN + 100.0 z_c3_dN <= 84.2825
  TravelSV_c4_c1: tauS_c4 - tauS_c1 + 100.0 z_c4_c1 <= 85.85
  TravelSV_c4_c2: tauS_c4 - tauS_c2 + 100.0 z_c4_c2 <= 86.3425
  TravelSV_c4_c3: tauS_c4 - tauS_c3 + 100.0 z_c4_c3 <= 87.96
  TravelSV_c4_c5: tauS_c4 - tauS_c5 + 100.0 z_c4_c5 <= 85.135
  TravelSV_c4_dN: tauS_c4 - tauS_dN + 100.0 z_c4_dN <= 88.31
  TravelSV_c5_c1: tauS_c5 - tauS_c1 + 100.0 z_c5_c1 <= 88.5275
  TravelSV_c5_c2: tauS_c5 - tauS_c2 + 100.0 z_c5_c2 <= 90.2325
  TravelSV_c5_c3: tauS_c5 - tauS_c3 + 100.0 z_c5_c3 <= 81.145
  TravelSV_c5_c4: tauS_c5 - tauS_c4 + 100.0 z_c5_c4 <= 85.135
  TravelSV_c5_dN: tauS_c5 - tauS_dN + 100.0 z_c5_dN <= 88.7975
  time_window_c1_e: tauD_c1 + 8.0 o_1 >= 40.0
  time_window_c1_l: tauD_c1 + 8.0 o_1 <= 60.0
  time_window_c2_e: tauD_c2 + 8.0 o_2 >= 20.0
  time_window_c2_l: tauD_c2 + 8.0 o_2 <= 40.0
  time_window_c3_e: tauD_c3 + 8.0 o_3 >= 60.0
  time_window_c3_l: tauD_c3 + 8.0 o_3 <= 80.0
  time_window_c4_e: tauD_c4 + 8.0 o_4 >= 0.0
  time_window_c4_l: tauD_c4 + 8.0 o_4 <= 100.0
  time_window_c5_e: tauD_c5 + 8.0 o_5 >= 20.0
  time_window_c5_l: tauD_c5 + 8.0 o_5 <= 40.0
  SyncA_c1_c2_c2: 8.0 o_1 + 100.0 x_c1_c2 - tauD_c2 - 1.9525 z_c1_c2 + [ tauS_c2 * z_c1_c2 ] <= 98.0475
  SyncA_c1_c2_c3: 8.0 o_1 + 100.0 x_c1_c2 - tauD_c2 - 9.5525 z_c1_c3 + [ tauS_c3 * z_c1_c3 ] <= 98.0475
  SyncA_c1_c2_c4: 8.0 o_1 + 100.0 x_c1_c2 - tauD_c2 - 6.15 z_c1_c4 + [ tauS_c4 * z_c1_c4 ] <= 98.0475
  SyncA_c1_c2_c5: 8.0 o_1 + 100.0 x_c1_c2 - tauD_c2 - 3.4725 z_c1_c5 + [ tauS_c5 * z_c1_c5 ] <= 98.0475
  SyncA_c1_c2_dN: 8.0 o_1 + 100.0 x_c1_c2 - tauD_c2 - 3.7825 z_c1_dN + [ tauS_dN * z_c1_dN ] <= 98.0475
  SyncA_c1_c3_c2: 8.0 o_1 + 100.0 x_c1_c3 - tauD_c3 - 1.9525 z_c1_c2 + [ tauS_c2 * z_c1_c2 ] <= 90.4475
  SyncA_c1_c3_c3: 8.0 o_1 + 100.0 x_c1_c3 - tauD_c3 - 9.5525 z_c1_c3 + [ tauS_c3 * z_c1_c3 ] <= 90.4475
  SyncA_c1_c3_c4: 8.0 o_1 + 100.0 x_c1_c3 - tauD_c3 - 6.15 z_c1_c4 + [ tauS_c4 * z_c1_c4 ] <= 90.4475
  SyncA_c1_c3_c5: 8.0 o_1 + 100.0 x_c1_c3 - tauD_c3 - 3.4725 z_c1_c5 + [ tauS_c5 * z_c1_c5 ] <= 90.4475
  SyncA_c1_c3_dN: 8.0 o_1 + 100.0 x_c1_c3 - tauD_c3 - 3.7825 z_c1_dN + [ tauS_dN * z_c1_dN ] <= 90.4475
  SyncA_c1_c4_c2: 8.0 o_1 + 100.0 x_c1_c4 - tauD_c4 - 1.9525 z_c1_c2 + [ tauS_c2 * z_c1_c2 ] <= 93.85
  SyncA_c1_c4_c3: 8.0 o_1 + 100.0 x_c1_c4 - tauD_c4 - 9.5525 z_c1_c3 + [ tauS_c3 * z_c1_c3 ] <= 93.85
  SyncA_c1_c4_c4: 8.0 o_1 + 100.0 x_c1_c4 - tauD_c4 - 6.15 z_c1_c4 + [ tauS_c4 * z_c1_c4 ] <= 93.85
  SyncA_c1_c4_c5: 8.0 o_1 + 100.0 x_c1_c4 - tauD_c4 - 3.4725 z_c1_c5 + [ tauS_c5 * z_c1_c5 ] <= 93.85
  SyncA_c1_c4_dN: 8.0 o_1 + 100.0 x_c1_c4 - tauD_c4 - 3.7825 z_c1_dN + [ tauS_dN * z_c1_dN ] <= 93.85
  SyncA_c1_c5_c2: 8.0 o_1 + 100.0 x_c1_c5 - tauD_c5 - 1.9525 z_c1_c2 + [ tauS_c2 * z_c1_c2 ] <= 96.5275
  SyncA_c1_c5_c3: 8.0 o_1 + 100.0 x_c1_c5 - tauD_c5 - 9.5525 z_c1_c3 + [ tauS_c3 * z_c1_c3 ] <= 96.5275
  SyncA_c1_c5_c4: 8.0 o_1 + 100.0 x_c1_c5 - tauD_c5 - 6.15 z_c1_c4 + [ tauS_c4 * z_c1_c4 ] <= 96.5275
  SyncA_c1_c5_c5: 8.0 o_1 + 100.0 x_c1_c5 - tauD_c5 - 3.4725 z_c1_c5 + [ tauS_c5 * z_c1_c5 ] <= 96.5275
  SyncA_c1_c5_dN: 8.0 o_1 + 100.0 x_c1_c5 - tauD_c5 - 3.7825 z_c1_dN + [ tauS_dN * z_c1_dN ] <= 96.5275
  SyncA_c1_dN_c2: 8.0 o_1 + 100.0 x_c1_dN - tauD_dN - 1.9525 z_c1_c2 + [ tauS_c2 * z_c1_c2 ] <= 96.2175
  SyncA_c1_dN_c3: 8.0 o_1 + 100.0 x_c1_dN - tauD_dN - 9.5525 z_c1_c3 + [ tauS_c3 * z_c1_c3 ] <= 96.2175
  SyncA_c1_dN_c4: 8.0 o_1 + 100.0 x_c1_dN - tauD_dN - 6.15 z_c1_c4 + [ tauS_c4 * z_c1_c4 ] <= 96.2175
  SyncA_c1_dN_c5: 8.0 o_1 + 100.0 x_c1_dN - tauD_dN - 3.4725 z_c1_c5 + [ tauS_c5 * z_c1_c5 ] <= 96.2175
  SyncA_c1_dN_dN: 8.0 o_1 + 100.0 x_c1_dN - tauD_dN - 3.7825 z_c1_dN + [ tauS_dN * z_c1_dN ] <= 96.2175
  SyncA_c2_c1_c1: 3.0 o_2 + 100.0 x_c2_c1 - tauD_c1 - 1.9525 z_c2_c1 + [ tauS_c1 * z_c2_c1 ] <= 98.0475
  SyncA_c2_c1_c3: 3.0 o_2 + 100.0 x_c2_c1 - tauD_c1 - 9.5025 z_c2_c3 + [ tauS_c3 * z_c2_c3 ] <= 98.0475
  SyncA_c2_c1_c4: 3.0 o_2 + 100.0 x_c2_c1 - tauD_c1 - 5.6575 z_c2_c4 + [ tauS_c4 * z_c2_c4 ] <= 98.0475
  SyncA_c2_c1_c5: 3.0 o_2 + 100.0 x_c2_c1 - tauD_c1 - 1.7675 z_c2_c5 + [ tauS_c5 * z_c2_c5 ] <= 98.0475
  SyncA_c2_c1_dN: 3.0 o_2 + 100.0 x_c2_c1 - tauD_c1 - 2.3725 z_c2_dN + [ tauS_dN * z_c2_dN ] <= 98.0475
  SyncA_c2_c3_c1: 3.0 o_2 + 100.0 x_c2_c3 - tauD_c3 - 1.9525 z_c2_c1 + [ tauS_c1 * z_c2_c1 ] <= 90.4975
  SyncA_c2_c3_c3: 3.0 o_2 + 100.0 x_c2_c3 - tauD_c3 - 9.5025 z_c2_c3 + [ tauS_c3 * z_c2_c3 ] <= 90.4975
  SyncA_c2_c3_c4: 3.0 o_2 + 100.0 x_c2_c3 - tauD_c3 - 5.6575 z_c2_c4 + [ tauS_c4 * z_c2_c4 ] <= 90.4975
  SyncA_c2_c3_c5: 3.0 o_2 + 100.0 x_c2_c3 - tauD_c3 - 1.7675 z_c2_c5 + [ tauS_c5 * z_c2_c5 ] <= 90.4975
  SyncA_c2_c3_dN: 3.0 o_2 + 100.0 x_c2_c3 - tauD_c3 - 2.3725 z_c2_dN + [ tauS_dN * z_c2_dN ] <= 90.4975
  SyncA_c2_c4_c1: 3.0 o_2 + 100.0 x_c2_c4 - tauD_c4 - 1.9525 z_c2_c1 + [ tauS_c1 * z_c2_c1 ] <= 94.3425
  SyncA_c2_c4_c3: 3.0 o_2 + 100.0 x_c2_c4 - tauD_c4 - 9.5025 z_c2_c3 + [ tauS_c3 * z_c2_c3 ] <= 94.3425
  SyncA_c2_c4_c4: 3.0 o_2 + 100.0 x_c2_c4 - tauD_c4 - 5.6575 z_c2_c4 + [ tauS_c4 * z_c2_c4 ] <= 94.3425
  SyncA_c2_c4_c5: 3.0 o_2 + 100.0 x_c2_c4 - tauD_c4 - 1.7675 z_c2_c5 + [ tauS_c5 * z_c2_c5 ] <= 94.3425
  SyncA_c2_c4_dN: 3.0 o_2 + 100.0 x_c2_c4 - tauD_c4 - 2.3725 z_c2_dN + [ tauS_dN * z_c2_dN ] <= 94.3425
  SyncA_c2_c5_c1: 3.0 o_2 + 100.0 x_c2_c5 - tauD_c5 - 1.9525 z_c2_c1 + [ tauS_c1 * z_c2_c1 ] <= 98.2325
  SyncA_c2_c5_c3: 3.0 o_2 + 100.0 x_c2_c5 - tauD_c5 - 9.5025 z_c2_c3 + [ tauS_c3 * z_c2_c3 ] <= 98.2325
  SyncA_c2_c5_c4: 3.0 o_2 + 100.0 x_c2_c5 - tauD_c5 - 5.6575 z_c2_c4 + [ tauS_c4 * z_c2_c4 ] <= 98.2325
  SyncA_c2_c5_c5: 3.0 o_2 + 100.0 x_c2_c5 - tauD_c5 - 1.7675 z_c2_c5 + [ tauS_c5 * z_c2_c5 ] <= 98.2325
  SyncA_c2_c5_dN: 3.0 o_2 + 100.0 x_c2_c5 - tauD_c5 - 2.3725 z_c2_dN + [ tauS_dN * z_c2_dN ] <= 98.2325
  SyncA_c2_dN_c1: 3.0 o_2 + 100.0 x_c2_dN - tauD_dN - 1.9525 z_c2_c1 + [ tauS_c1 * z_c2_c1 ] <= 97.6275
  SyncA_c2_dN_c3: 3.0 o_2 + 100.0 x_c2_dN - tauD_dN - 9.5025 z_c2_c3 + [ tauS_c3 * z_c2_c3 ] <= 97.6275
  SyncA_c2_dN_c4: 3.0 o_2 + 100.0 x_c2_dN - tauD_dN - 5.6575 z_c2_c4 + [ tauS_c4 * z_c2_c4 ] <= 97.6275
  SyncA_c2_dN_c5: 3.0 o_2 + 100.0 x_c2_dN - tauD_dN - 1.7675 z_c2_c5 + [ tauS_c5 * z_c2_c5 ] <= 97.6275
  SyncA_c2_dN_dN: 3.0 o_2 + 100.0 x_c2_dN - tauD_dN - 2.3725 z_c2_dN + [ tauS_dN * z_c2_dN ] <= 97.6275
  SyncA_c3_c1_c1: 7.0 o_3 + 100.0 x_c3_c1 - tauD_c1 - 9.5525 z_c3_c1 + [ tauS_c1 * z_c3_c1 ] <= 90.4475
  SyncA_c3_c1_c2: 7.0 o_3 + 100.0 x_c3_c1 - tauD_c1 - 9.5025 z_c3_c2 + [ tauS_c2 * z_c3_c2 ] <= 90.4475
  SyncA_c3_c1_c4: 7.0 o_3 + 100.0 x_c3_c1 - tauD_c1 - 4.04 z_c3_c4 + [ tauS_c4 * z_c3_c4 ] <= 90.4475
  SyncA_c3_c1_c5: 7.0 o_3 + 100.0 x_c3_c1 - tauD_c1 - 10.855 z_c3_c5 + [ tauS_c5 * z_c3_c5 ] <= 90.4475
  SyncA_c3_c1_dN: 7.0 o_3 + 100.0 x_c3_c1 - tauD_c1 - 7.7175 z_c3_dN + [ tauS_dN * z_c3_dN ] <= 90.4475
  SyncA_c3_c2_c1: 7.0 o_3 + 100.0 x_c3_c2 - tauD_c2 - 9.5525 z_c3_c1 + [ tauS_c1 * z_c3_c1 ] <= 90.4975
  SyncA_c3_c2_c2: 7.0 o_3 + 100.0 x_c3_c2 - tauD_c2 - 9.5025 z_c3_c2 + [ tauS_c2 * z_c3_c2 ] <= 90.4975
  SyncA_c3_c2_c4: 7.0 o_3 + 100.0 x_c3_c2 - tauD_c2 - 4.04 z_c3_c4 + [ tauS_c4 * z_c3_c4 ] <= 90.4975
  SyncA_c3_c2_c5: 7.0 o_3 + 100.0 x_c3_c2 - tauD_c2 - 10.855 z_c3_c5 + [ tauS_c5 * z_c3_c5 ] <= 90.4975
  SyncA_c3_c2_dN: 7.0 o_3 + 100.0 x_c3_c2 - tauD_c2 - 7.7175 z_c3_dN + [ tauS_dN * z_c3_dN ] <= 90.4975
  SyncA_c3_c4_c1: 7.0 o_3 + 100.0 x_c3_c4 - tauD_c4 - 9.5525 z_c3_c1 + [ tauS_c1 * z_c3_c1 ] <= 95.96
  SyncA_c3_c4_c2: 7.0 o_3 + 100.0 x_c3_c4 - tauD_c4 - 9.5025 z_c3_c2 + [ tauS_c2 * z_c3_c2 ] <= 95.96
  SyncA_c3_c4_c4: 7.0 o_3 + 100.0 x_c3_c4 - tauD_c4 - 4.04 z_c3_c4 + [ tauS_c4 * z_c3_c4 ] <= 95.96
  SyncA_c3_c4_c5: 7.0 o_3 + 100.0 x_c3_c4 - tauD_c4 - 10.855 z_c3_c5 + [ tauS_c5 * z_c3_c5 ] <= 95.96
  SyncA_c3_c4_dN: 7.0 o_3 + 100.0 x_c3_c4 - tauD_c4 - 7.7175 z_c3_dN + [ tauS_dN * z_c3_dN ] <= 95.96
  SyncA_c3_c5_c1: 7.0 o_3 + 100.0 x_c3_c5 - tauD_c5 - 9.5525 z_c3_c1 + [ tauS_c1 * z_c3_c1 ] <= 89.145
  SyncA_c3_c5_c2: 7.0 o_3 + 100.0 x_c3_c5 - tauD_c5 - 9.5025 z_c3_c2 + [ tauS_c2 * z_c3_c2 ] <= 89.145
  SyncA_c3_c5_c4: 7.0 o_3 + 100.0 x_c3_c5 - tauD_c5 - 4.04 z_c3_c4 + [ tauS_c4 * z_c3_c4 ] <= 89.145
  SyncA_c3_c5_c5: 7.0 o_3 + 100.0 x_c3_c5 - tauD_c5 - 10.855 z_c3_c5 + [ tauS_c5 * z_c3_c5 ] <= 89.145
  SyncA_c3_c5_dN: 7.0 o_3 + 100.0 x_c3_c5 - tauD_c5 - 7.7175 z_c3_dN + [ tauS_dN * z_c3_dN ] <= 89.145
  SyncA_c3_dN_c1: 7.0 o_3 + 100.0 x_c3_dN - tauD_dN - 9.5525 z_c3_c1 + [ tauS_c1 * z_c3_c1 ] <= 92.2825
  SyncA_c3_dN_c2: 7.0 o_3 + 100.0 x_c3_dN - tauD_dN - 9.5025 z_c3_c2 + [ tauS_c2 * z_c3_c2 ] <= 92.2825
  SyncA_c3_dN_c4: 7.0 o_3 + 100.0 x_c3_dN - tauD_dN - 4.04 z_c3_c4 + [ tauS_c4 * z_c3_c4 ] <= 92.2825
  SyncA_c3_dN_c5: 7.0 o_3 + 100.0 x_c3_dN - tauD_dN - 10.855 z_c3_c5 + [ tauS_c5 * z_c3_c5 ] <= 92.2825
  SyncA_c3_dN_dN: 7.0 o_3 + 100.0 x_c3_dN - tauD_dN - 7.7175 z_c3_dN + [ tauS_dN * z_c3_dN ] <= 92.2825
  SyncA_c4_c1_c1: 3.0 o_4 + 100.0 x_c4_c1 - tauD_c1 - 6.15 z_c4_c1 + [ tauS_c1 * z_c4_c1 ] <= 93.85
  SyncA_c4_c1_c2: 3.0 o_4 + 100.0 x_c4_c1 - tauD_c1 - 5.6575 z_c4_c2 + [ tauS_c2 * z_c4_c2 ] <= 93.85
  SyncA_c4_c1_c3: 3.0 o_4 + 100.0 x_c4_c1 - tauD_c1 - 4.04 z_c4_c3 + [ tauS_c3 * z_c4_c3 ] <= 93.85
  SyncA_c4_c1_c5: 3.0 o_4 + 100.0 x_c4_c1 - tauD_c1 - 6.865 z_c4_c5 + [ tauS_c5 * z_c4_c5 ] <= 93.85
  SyncA_c4_c1_dN: 3.0 o_4 + 100.0 x_c4_c1 - tauD_c1 - 3.69 z_c4_dN + [ tauS_dN * z_c4_dN ] <= 93.85
  SyncA_c4_c2_c1: 3.0 o_4 + 100.0 x_c4_c2 - tauD_c2 - 6.15 z_c4_c1 + [ tauS_c1 * z_c4_c1 ] <= 94.3425
  SyncA_c4_c2_c2: 3.0 o_4 + 100.0 x_c4_c2 - tauD_c2 - 5.6575 z_c4_c2 + [ tauS_c2 * z_c4_c2 ] <= 94.3425
  SyncA_c4_c2_c3: 3.0 o_4 + 100.0 x_c4_c2 - tauD_c2 - 4.04 z_c4_c3 + [ tauS_c3 * z_c4_c3 ] <= 94.3425
  SyncA_c4_c2_c5: 3.0 o_4 + 100.0 x_c4_c2 - tauD_c2 - 6.865 z_c4_c5 + [ tauS_c5 * z_c4_c5 ] <= 94.3425
  SyncA_c4_c2_dN: 3.0 o_4 + 100.0 x_c4_c2 - tauD_c2 - 3.69 z_c4_dN + [ tauS_dN * z_c4_dN ] <= 94.3425
  SyncA_c4_c3_c1: 3.0 o_4 + 100.0 x_c4_c3 - tauD_c3 - 6.15 z_c4_c1 + [ tauS_c1 * z_c4_c1 ] <= 95.96
  SyncA_c4_c3_c2: 3.0 o_4 + 100.0 x_c4_c3 - tauD_c3 - 5.6575 z_c4_c2 + [ tauS_c2 * z_c4_c2 ] <= 95.96
  SyncA_c4_c3_c3: 3.0 o_4 + 100.0 x_c4_c3 - tauD_c3 - 4.04 z_c4_c3 + [ tauS_c3 * z_c4_c3 ] <= 95.96
  SyncA_c4_c3_c5: 3.0 o_4 + 100.0 x_c4_c3 - tauD_c3 - 6.865 z_c4_c5 + [ tauS_c5 * z_c4_c5 ] <= 95.96
  SyncA_c4_c3_dN: 3.0 o_4 + 100.0 x_c4_c3 - tauD_c3 - 3.69 z_c4_dN + [ tauS_dN * z_c4_dN ] <= 95.96
  SyncA_c4_c5_c1: 3.0 o_4 + 100.0 x_c4_c5 - tauD_c5 - 6.15 z_c4_c1 + [ tauS_c1 * z_c4_c1 ] <= 93.135
  SyncA_c4_c5_c2: 3.0 o_4 + 100.0 x_c4_c5 - tauD_c5 - 5.6575 z_c4_c2 + [ tauS_c2 * z_c4_c2 ] <= 93.135
  SyncA_c4_c5_c3: 3.0 o_4 + 100.0 x_c4_c5 - tauD_c5 - 4.04 z_c4_c3 + [ tauS_c3 * z_c4_c3 ] <= 93.135
  SyncA_c4_c5_c5: 3.0 o_4 + 100.0 x_c4_c5 - tauD_c5 - 6.865 z_c4_c5 + [ tauS_c5 * z_c4_c5 ] <= 93.135
  SyncA_c4_c5_dN: 3.0 o_4 + 100.0 x_c4_c5 - tauD_c5 - 3.69 z_c4_dN + [ tauS_dN * z_c4_dN ] <= 93.135
  SyncA_c4_dN_c1: 3.0 o_4 + 100.0 x_c4_dN - tauD_dN - 6.15 z_c4_c1 + [ tauS_c1 * z_c4_c1 ] <= 96.31
  SyncA_c4_dN_c2: 3.0 o_4 + 100.0 x_c4_dN - tauD_dN - 5.6575 z_c4_c2 + [ tauS_c2 * z_c4_c2 ] <= 96.31
  SyncA_c4_dN_c3: 3.0 o_4 + 100.0 x_c4_dN - tauD_dN - 4.04 z_c4_c3 + [ tauS_c3 * z_c4_c3 ] <= 96.31
  SyncA_c4_dN_c5: 3.0 o_4 + 100.0 x_c4_dN - tauD_dN - 6.865 z_c4_c5 + [ tauS_c5 * z_c4_c5 ] <= 96.31
  SyncA_c4_dN_dN: 3.0 o_4 + 100.0 x_c4_dN - tauD_dN - 3.69 z_c4_dN + [ tauS_dN * z_c4_dN ] <= 96.31
  SyncA_c5_c1_c1: 2.0 o_5 + 100.0 x_c5_c1 - tauD_c1 - 3.4725 z_c5_c1 + [ tauS_c1 * z_c5_c1 ] <= 96.5275
  SyncA_c5_c1_c2: 2.0 o_5 + 100.0 x_c5_c1 - tauD_c1 - 1.7675 z_c5_c2 + [ tauS_c2 * z_c5_c2 ] <= 96.5275
  SyncA_c5_c1_c3: 2.0 o_5 + 100.0 x_c5_c1 - tauD_c1 - 10.855 z_c5_c3 + [ tauS_c3 * z_c5_c3 ] <= 96.5275
  SyncA_c5_c1_c4: 2.0 o_5 + 100.0 x_c5_c1 - tauD_c1 - 6.865 z_c5_c4 + [ tauS_c4 * z_c5_c4 ] <= 96.5275
  SyncA_c5_c1_dN: 2.0 o_5 + 100.0 x_c5_c1 - tauD_c1 - 3.2025 z_c5_dN + [ tauS_dN * z_c5_dN ] <= 96.5275
  SyncA_c5_c2_c1: 2.0 o_5 + 100.0 x_c5_c2 - tauD_c2 - 3.4725 z_c5_c1 + [ tauS_c1 * z_c5_c1 ] <= 98.2325
  SyncA_c5_c2_c2: 2.0 o_5 + 100.0 x_c5_c2 - tauD_c2 - 1.7675 z_c5_c2 + [ tauS_c2 * z_c5_c2 ] <= 98.2325
  SyncA_c5_c2_c3: 2.0 o_5 + 100.0 x_c5_c2 - tauD_c2 - 10.855 z_c5_c3 + [ tauS_c3 * z_c5_c3 ] <= 98.2325
  SyncA_c5_c2_c4: 2.0 o_5 + 100.0 x_c5_c2 - tauD_c2 - 6.865 z_c5_c4 + [ tauS_c4 * z_c5_c4 ] <= 98.2325
  SyncA_c5_c2_dN: 2.0 o_5 + 100.0 x_c5_c2 - tauD_c2 - 3.2025 z_c5_dN + [ tauS_dN * z_c5_dN ] <= 98.2325
  SyncA_c5_c3_c1: 2.0 o_5 + 100.0 x_c5_c3 - tauD_c3 - 3.4725 z_c5_c1 + [ tauS_c1 * z_c5_c1 ] <= 89.145
  SyncA_c5_c3_c2: 2.0 o_5 + 100.0 x_c5_c3 - tauD_c3 - 1.7675 z_c5_c2 + [ tauS_c2 * z_c5_c2 ] <= 89.145
  SyncA_c5_c3_c3: 2.0 o_5 + 100.0 x_c5_c3 - tauD_c3 - 10.855 z_c5_c3 + [ tauS_c3 * z_c5_c3 ] <= 89.145
  SyncA_c5_c3_c4: 2.0 o_5 + 100.0 x_c5_c3 - tauD_c3 - 6.865 z_c5_c4 + [ tauS_c4 * z_c5_c4 ] <= 89.145
  SyncA_c5_c3_dN: 2.0 o_5 + 100.0 x_c5_c3 - tauD_c3 - 3.2025 z_c5_dN + [ tauS_dN * z_c5_dN ] <= 89.145
  SyncA_c5_c4_c1: 2.0 o_5 + 100.0 x_c5_c4 - tauD_c4 - 3.4725 z_c5_c1 + [ tauS_c1 * z_c5_c1 ] <= 93.135
  SyncA_c5_c4_c2: 2.0 o_5 + 100.0 x_c5_c4 - tauD_c4 - 1.7675 z_c5_c2 + [ tauS_c2 * z_c5_c2 ] <= 93.135
  SyncA_c5_c4_c3: 2.0 o_5 + 100.0 x_c5_c4 - tauD_c4 - 10.855 z_c5_c3 + [ tauS_c3 * z_c5_c3 ] <= 93.135
  SyncA_c5_c4_c4: 2.0 o_5 + 100.0 x_c5_c4 - tauD_c4 - 6.865 z_c5_c4 + [ tauS_c4 * z_c5_c4 ] <= 93.135
  SyncA_c5_c4_dN: 2.0 o_5 + 100.0 x_c5_c4 - tauD_c4 - 3.2025 z_c5_dN + [ tauS_dN * z_c5_dN ] <= 93.135
  SyncA_c5_dN_c1: 2.0 o_5 + 100.0 x_c5_dN - tauD_dN - 3.4725 z_c5_c1 + [ tauS_c1 * z_c5_c1 ] <= 96.7975
  SyncA_c5_dN_c2: 2.0 o_5 + 100.0 x_c5_dN - tauD_dN - 1.7675 z_c5_c2 + [ tauS_c2 * z_c5_c2 ] <= 96.7975
  SyncA_c5_dN_c3: 2.0 o_5 + 100.0 x_c5_dN - tauD_dN - 10.855 z_c5_c3 + [ tauS_c3 * z_c5_c3 ] <= 96.7975
  SyncA_c5_dN_c4: 2.0 o_5 + 100.0 x_c5_dN - tauD_dN - 6.865 z_c5_c4 + [ tauS_c4 * z_c5_c4 ] <= 96.7975
  SyncA_c5_dN_dN: 2.0 o_5 + 100.0 x_c5_dN - tauD_dN - 3.2025 z_c5_dN + [ tauS_dN * z_c5_dN ] <= 96.7975
  SVFirst_c1_c2: tauS_c2 - tauD_c1 + 8.0 o_1 - 100.0 z_c1_c2 >= -82.0475
  SVFirst_c1_c3: tauS_c3 - tauD_c1 + 8.0 o_1 - 100.0 z_c1_c3 >= -74.44749999999999
  SVFirst_c1_c4: tauS_c4 - tauD_c1 + 8.0 o_1 - 100.0 z_c1_c4 >= -77.85
  SVFirst_c1_c5: tauS_c5 - tauD_c1 + 8.0 o_1 - 100.0 z_c1_c5 >= -80.5275
  SVFirst_c1_dN:  tauS_dN - tauD_c1 + 8.0 o_1 - 100.0 z_c1_dN >= -80.2175
  SVFirst_c2_c1: tauS_c1 - tauD_c2 + 3.0 o_2 - 100.0 z_c2_c1 >= -87.0475
  SVFirst_c2_c3: tauS_c3 - tauD_c2 + 3.0 o_2 - 100.0 z_c2_c3 >= -79.4975
  SVFirst_c2_c4: tauS_c4 - tauD_c2 + 3.0 o_2 - 100.0 z_c2_c4 >= -83.3425
  SVFirst_c2_c5: tauS_c5 - tauD_c2 + 3.0 o_2 - 100.0 z_c2_c5 >= -87.2325
  SVFirst_c2_dN:  tauS_dN - tauD_c2 + 3.0 o_2 - 100.0 z_c2_dN >= -86.6275
  SVFirst_c3_c1: tauS_c1 - tauD_c3 + 7.0 o_3 - 100.0 z_c3_c1 >= -75.44749999999999
  SVFirst_c3_c2: tauS_c2 - tauD_c3 + 7.0 o_3 - 100.0 z_c3_c2 >= -75.4975
  SVFirst_c3_c4: tauS_c4 - tauD_c3 + 7.0 o_3 - 100.0 z_c3_c4 >= -80.96000000000001
  SVFirst_c3_c5: tauS_c5 - tauD_c3 + 7.0 o_3 - 100.0 z_c3_c5 >= -74.145
  SVFirst_c3_dN:  tauS_dN - tauD_c3 + 7.0 o_3 - 100.0 z_c3_dN >= -77.2825
  SVFirst_c4_c1: tauS_c1 - tauD_c4 + 3.0 o_4 - 100.0 z_c4_c1 >= -82.85
  SVFirst_c4_c2: tauS_c2 - tauD_c4 + 3.0 o_4 - 100.0 z_c4_c2 >= -83.3425
  SVFirst_c4_c3: tauS_c3 - tauD_c4 + 3.0 o_4 - 100.0 z_c4_c3 >= -84.96000000000001
  SVFirst_c4_c5: tauS_c5 - tauD_c4 + 3.0 o_4 - 100.0 z_c4_c5 >= -82.135
  SVFirst_c4_dN:  tauS_dN - tauD_c4 + 3.0 o_4 - 100.0 z_c4_dN >= -85.31
  SVFirst_c5_c1: tauS_c1 - tauD_c5 + 2.0 o_5 - 100.0 z_c5_c1 >= -86.5275
  SVFirst_c5_c2: tauS_c2 - tauD_c5 + 2.0 o_5 - 100.0 z_c5_c2 >= -88.2325
  SVFirst_c5_c3: tauS_c3 - tauD_c5 + 2.0 o_5 - 100.0 z_c5_c3 >= -79.145
  SVFirst_c5_c4: tauS_c4 - tauD_c5 + 2.0 o_5 - 100.0 z_c5_c4 >= -83.135
  SVFirst_c5_dN:  tauS_dN - tauD_c5 + 2.0 o_5 - 100.0 z_c5_dN >= -86.7975
  Precedence_Swap_c1:  p_1 - z_d0_c1 - z_c2_c1 - z_c3_c1 - z_c4_c1 - z_c5_c1 = 0
  Precedence_Swap_c2:  p_2 - z_d0_c2 - z_c1_c2 - z_c3_c2 - z_c4_c2 - z_c5_c2 = 0
  Precedence_Swap_c3:  p_3 - z_d0_c3 - z_c1_c3 - z_c2_c3 - z_c4_c3 - z_c5_c3 = 0
  Precedence_Swap_c4:  p_4 - z_d0_c4 - z_c1_c4 - z_c2_c4 - z_c3_c4 - z_c5_c4 = 0
  Precedence_Swap_c5:  p_5 - z_d0_c5 - z_c1_c5 - z_c2_c5 - z_c3_c5 - z_c4_c5 = 0
  Order_c1:  o_1 - p_1 <= 0
  Order_c2:  o_2 - p_2 <= 0
  Order_c3:  o_3 - p_3 <= 0
  Order_c4:  o_4 - p_4 <= 0
  Order_c5:  o_5 - p_5 <= 0
  WorkingTimeS_c1:  tauS_c1 <= 88.2175
  WorkingTimeS_c2:  tauS_c2 <= 89.6275
  WorkingTimeS_c3:  tauS_c3 <= 84.2825
  WorkingTimeS_c4:  tauS_c4 <= 88.31
  WorkingTimeS_c5:  tauS_c5 <= 88.7975
  Freight_c1_c2:  k_c2 - k_c1 + 100.0 x_c1_c2 <= 97.0
  Freight_c1_c3:  k_c3 - k_c1 + 100.0 x_c1_c3 <= 97.0
  Freight_c1_c4:  k_c4 - k_c1 + 100.0 x_c1_c4 <= 97.0
  Freight_c1_c5:  k_c5 - k_c1 + 100.0 x_c1_c5 <= 97.0
  Freight_c1_dN:  k_dN - k_c1 + 100.0 x_c1_dN <= 97.0
  Freight_c2_c1:  k_c1 - k_c2 + 100.0 x_c2_c1 <= 96.0
  Freight_c2_c3:  k_c3 - k_c2 + 100.0 x_c2_c3 <= 96.0
  Freight_c2_c4:  k_c4 - k_c2 + 100.0 x_c2_c4 <= 96.0
  Freight_c2_c5:  k_c5 - k_c2 + 100.0 x_c2_c5 <= 96.0
  Freight_c2_dN:  k_dN - k_c2 + 100.0 x_c2_dN <= 96.0
  Freight_c3_c1:  k_c1 - k_c3 + 100.0 x_c3_c1 <= 96.0
  Freight_c3_c2:  k_c2 - k_c3 + 100.0 x_c3_c2 <= 96.0
  Freight_c3_c4:  k_c4 - k_c3 + 100.0 x_c3_c4 <= 96.0
  Freight_c3_c5:  k_c5 - k_c3 + 100.0 x_c3_c5 <= 96.0
  Freight_c3_dN:  k_dN - k_c3 + 100.0 x_c3_dN <= 96.0
  Freight_c4_c1:  k_c1 - k_c4 + 100.0 x_c4_c1 <= 94.0
  Freight_c4_c2:  k_c2 - k_c4 + 100.0 x_c4_c2 <= 94.0
  Freight_c4_c3:  k_c3 - k_c4 + 100.0 x_c4_c3 <= 94.0
  Freight_c4_c5:  k_c5 - k_c4 + 100.0 x_c4_c5 <= 94.0
  Freight_c4_dN:  k_dN - k_c4 + 100.0 x_c4_dN <= 94.0
  Freight_c5_c1:  k_c1 - k_c5 + 100.0 x_c5_c1 <= 97.0
  Freight_c5_c2:  k_c2 - k_c5 + 100.0 x_c5_c2 <= 97.0
  Freight_c5_c3:  k_c3 - k_c5 + 100.0 x_c5_c3 <= 97.0
  Freight_c5_c4:  k_c4 - k_c5 + 100.0 x_c5_c4 <= 97.0
  Freight_c5_dN:  k_dN - k_c5 + 100.0 x_c5_dN <= 97.0
  FuelDV_d0_c1:  phi_c1 + 6.0122 x_d0_c1 <= 10.0
  FuelDV_d0_c2:  phi_c2 + 5.6349 x_d0_c2 <= 10.0
  FuelDV_d0_c3:  phi_c3 + 7.0652 x_d0_c3 <= 10.0
  FuelDV_d0_c4:  phi_c4 + 5.9874 x_d0_c4 <= 10.0
  FuelDV_d0_c5:  phi_c5 + 5.857 x_d0_c5 <= 10.0
  FuelDV_c1_c2:  phi_c2 - phi_c1 + 5.5225 x_c1_c2 + [ phi_c1 * p_1 - 5.0 x_c1_c2 * p_1 ] <= 5.0
  FuelDV_c1_c3:  phi_c3 - phi_c1 + 7.5562000000000005 x_c1_c3 + [ phi_c1 * p_1 - 5.0 x_c1_c3 * p_1 ] <= 5.0
  FuelDV_c1_c4:  phi_c4 - phi_c1 + 6.6457 x_c1_c4 + [ phi_c1 * p_1 - 5.0 x_c1_c4 * p_1 ] <= 5.0
  FuelDV_c1_c5:  phi_c5 - phi_c1 + 5.9292 x_c1_c5 + [ phi_c1 * p_1 - 5.0 x_c1_c5 * p_1 ] <= 5.0
  FuelDV_c1_dN:  phi_dN - phi_c1 + 6.0122 x_c1_dN + [ phi_c1 * p_1 - 5.0 x_c1_dN * p_1 ] <= 5.0
  FuelDV_c2_c1:  phi_c1 - phi_c2 + 5.5225 x_c2_c1 + [ phi_c2 * p_2 - 5.0 x_c2_c1 * p_2 ] <= 5.0
  FuelDV_c2_c3:  phi_c3 - phi_c2 + 7.5428999999999995 x_c2_c3 + [ phi_c2 * p_2 - 5.0 x_c2_c3 * p_2 ] <= 5.0
  FuelDV_c2_c4:  phi_c4 - phi_c2 + 6.5139 x_c2_c4 + [ phi_c2 * p_2 - 5.0 x_c2_c4 * p_2 ] <= 5.0
  FuelDV_c2_c5:  phi_c5 - phi_c2 + 5.473 x_c2_c5 + [ phi_c2 * p_2 - 5.0 x_c2_c5 * p_2 ] <= 5.0
  FuelDV_c2_dN:  phi_dN - phi_c2 + 5.6349 x_c2_dN + [ phi_c2 * p_2 - 5.0 x_c2_dN * p_2 ] <= 5.0
  FuelDV_c3_c1:  phi_c1 - phi_c3 + 7.5562000000000005 x_c3_c1 + [ phi_c3 * p_3 - 5.0 x_c3_c1 * p_3 ] <= 5.0
  FuelDV_c3_c2:  phi_c2 - phi_c3 + 7.5428999999999995 x_c3_c2 + [ phi_c3 * p_3 - 5.0 x_c3_c2 * p_3 ] <= 5.0
  FuelDV_c3_c4:  phi_c4 - phi_c3 + 6.0811 x_c3_c4 + [ phi_c3 * p_3 - 5.0 x_c3_c4 * p_3 ] <= 5.0
  FuelDV_c3_c5:  phi_c5 - phi_c3 + 7.9048 x_c3_c5 + [ phi_c3 * p_3 - 5.0 x_c3_c5 * p_3 ] <= 5.0
  FuelDV_c3_dN:  phi_dN - phi_c3 + 7.0652 x_c3_dN + [ phi_c3 * p_3 - 5.0 x_c3_dN * p_3 ] <= 5.0
  FuelDV_c4_c1:  phi_c1 - phi_c4 + 6.6457 x_c4_c1 + [ phi_c4 * p_4 - 5.0 x_c4_c1 * p_4 ] <= 5.0
  FuelDV_c4_c2:  phi_c2 - phi_c4 + 6.5139 x_c4_c2 + [ phi_c4 * p_4 - 5.0 x_c4_c2 * p_4 ] <= 5.0
  FuelDV_c4_c3:  phi_c3 - phi_c4 + 6.0811 x_c4_c3 + [ phi_c4 * p_4 - 5.0 x_c4_c3 * p_4 ] <= 5.0
  FuelDV_c4_c5:  phi_c5 - phi_c4 + 6.8370999999999995 x_c4_c5 + [ phi_c4 * p_4 - 5.0 x_c4_c5 * p_4 ] <= 5.0
  FuelDV_c4_dN:  phi_dN - phi_c4 + 5.9874 x_c4_dN + [ phi_c4 * p_4 - 5.0 x_c4_dN * p_4 ] <= 5.0
  FuelDV_c5_c1:  phi_c1 - phi_c5 + 5.9292 x_c5_c1 + [ phi_c5 * p_5 - 5.0 x_c5_c1 * p_5 ] <= 5.0
  FuelDV_c5_c2:  phi_c2 - phi_c5 + 5.473 x_c5_c2 + [ phi_c5 * p_5 - 5.0 x_c5_c2 * p_5 ] <= 5.0
  FuelDV_c5_c3:  phi_c3 - phi_c5 + 7.9048 x_c5_c3 + [ phi_c5 * p_5 - 5.0 x_c5_c3 * p_5 ] <= 5.0
  FuelDV_c5_c4:  phi_c4 - phi_c5 + 6.8370999999999995 x_c5_c4 + [ phi_c5 * p_5 - 5.0 x_c5_c4 * p_5 ] <= 5.0
  FuelDV_c5_dN:  phi_dN - phi_c5 + 5.857 x_c5_dN + [ phi_c5 * p_5 - 5.0 x_c5_dN * p_5 ] <= 5.0
  FreightSV_c1_c2:  pi_c2 - pi_c1 - phi_c1 + 25.0 z_c1_c2 <= 20.0
  FreightSV_c1_c3:  pi_c3 - pi_c1 - phi_c1 + 25.0 z_c1_c3 <= 20.0
  FreightSV_c1_c4:  pi_c4 - pi_c1 - phi_c1 + 25.0 z_c1_c4 <= 20.0
  FreightSV_c1_c5:  pi_c5 - pi_c1 - phi_c1 + 25.0 z_c1_c5 <= 20.0
  FreightSV_c1_dN:  pi_dN - pi_c1 - phi_c1 + 25.0 z_c1_dN <= 20.0
  FreightSV_c2_c1:  pi_c1 - pi_c2 - phi_c2 + 25.0 z_c2_c1 <= 20.0
  FreightSV_c2_c3:  pi_c3 - pi_c2 - phi_c2 + 25.0 z_c2_c3 <= 20.0
  FreightSV_c2_c4:  pi_c4 - pi_c2 - phi_c2 + 25.0 z_c2_c4 <= 20.0
  FreightSV_c2_c5:  pi_c5 - pi_c2 - phi_c2 + 25.0 z_c2_c5 <= 20.0
  FreightSV_c2_dN:  pi_dN - pi_c2 - phi_c2 + 25.0 z_c2_dN <= 20.0
  FreightSV_c3_c1:  pi_c1 - pi_c3 - phi_c3 + 25.0 z_c3_c1 <= 20.0
  FreightSV_c3_c2:  pi_c2 - pi_c3 - phi_c3 + 25.0 z_c3_c2 <= 20.0
  FreightSV_c3_c4:  pi_c4 - pi_c3 - phi_c3 + 25.0 z_c3_c4 <= 20.0
  FreightSV_c3_c5:  pi_c5 - pi_c3 - phi_c3 + 25.0 z_c3_c5 <= 20.0
  FreightSV_c3_dN:  pi_dN - pi_c3 - phi_c3 + 25.0 z_c3_dN <= 20.0
  FreightSV_c4_c1:  pi_c1 - pi_c4 - phi_c4 + 25.0 z_c4_c1 <= 20.0
  FreightSV_c4_c2:  pi_c2 - pi_c4 - phi_c4 + 25.0 z_c4_c2 <= 20.0
  FreightSV_c4_c3:  pi_c3 - pi_c4 - phi_c4 + 25.0 z_c4_c3 <= 20.0
  FreightSV_c4_c5:  pi_c5 - pi_c4 - phi_c4 + 25.0 z_c4_c5 <= 20.0
  FreightSV_c4_dN:  pi_dN - pi_c4 - phi_c4 + 25.0 z_c4_dN <= 20.0
  FreightSV_c5_c1:  pi_c1 - pi_c5 - phi_c5 + 25.0 z_c5_c1 <= 20.0
  FreightSV_c5_c2:  pi_c2 - pi_c5 - phi_c5 + 25.0 z_c5_c2 <= 20.0
  FreightSV_c5_c3:  pi_c3 - pi_c5 - phi_c5 + 25.0 z_c5_c3 <= 20.0
  FreightSV_c5_c4:  pi_c4 - pi_c5 - phi_c5 + 25.0 z_c5_c4 <= 20.0
  FreightSV_c5_dN:  pi_dN - pi_c5 - phi_c5 + 25.0 z_c5_dN <= 20.0
  WorkingTimeD_c1:  tauD_c1 + 8.0 p_1 <= 88.2175
  WorkingTimeD_c2:  tauD_c2 + 8.0 p_2 <= 94.6275
  WorkingTimeD_c3:  tauD_c3 + 8.0 p_3 <= 85.2825
  WorkingTimeD_c4:  tauD_c4 + 8.0 p_4 <= 93.31
  WorkingTimeD_c5:  tauD_c5 + 8.0 p_5 <= 94.7975
Bounds
0 <= k_c1 <= 100.0
0 <= k_c2 <= 100.0
0 <= k_c3 <= 100.0
0 <= k_c4 <= 100.0
0 <= k_c5 <= 100.0
0 <= k_dN <= 100.0
0 <= phi_c1 <= 5.0
0 <= phi_c2 <= 5.0
0 <= phi_c3 <= 5.0
0 <= phi_c4 <= 5.0
0 <= phi_c5 <= 5.0
0 <= phi_dN <= 5.0
0 <= pi_c1 <= 25.0
0 <= pi_c2 <= 25.0
0 <= pi_c3 <= 25.0
0 <= pi_c4 <= 25.0
0 <= pi_c5 <= 25.0
0 <= pi_dN <= 25.0
0 <= tauD_c1 <= 100.0
0 <= tauD_c2 <= 100.0
0 <= tauD_c3 <= 100.0
0 <= tauD_c4 <= 100.0
0 <= tauD_c5 <= 100.0
0 <= tauD_d0 <= 100.0
0 <= tauD_dN <= 100.0
0 <= tauS_c1 <= 100.0
0 <= tauS_c2 <= 100.0
0 <= tauS_c3 <= 100.0
0 <= tauS_c4 <= 100.0
0 <= tauS_c5 <= 100.0
0 <= tauS_d0 <= 100.0
0 <= tauS_dN <= 100.0
Generals
  k_c1
  k_c2
  k_c3
  k_c4
  k_c5
  k_dN
  phi_c1
  phi_c2
  phi_c3
  phi_c4
  phi_c5
  phi_dN
  pi_c1
  pi_c2
  pi_c3
  pi_c4
  pi_c5
  pi_dN
  tauD_c1
  tauD_c2
  tauD_c3
  tauD_c4
  tauD_c5
  tauD_d0
  tauD_dN
  tauS_c1
  tauS_c2
  tauS_c3
  tauS_c4
  tauS_c5
  tauS_d0
  tauS_dN
Binary
  o_1
  o_2
  o_3
  o_4
  o_5
  p_1
  p_2
  p_3
  p_4
  p_5
  x_c1_c2
  x_c1_c3
  x_c1_c4
  x_c1_c5
  x_c1_dN
  x_c2_c1
  x_c2_c3
  x_c2_c4
  x_c2_c5
  x_c2_dN
  x_c3_c1
  x_c3_c2
  x_c3_c4
  x_c3_c5
  x_c3_dN
  x_c4_c1
  x_c4_c2
  x_c4_c3
  x_c4_c5
  x_c4_dN
  x_c5_c1
  x_c5_c2
  x_c5_c3
  x_c5_c4
  x_c5_dN
  x_d0_c1
  x_d0_c2
  x_d0_c3
  x_d0_c4
  x_d0_c5
  z_c1_c2
  z_c1_c3
  z_c1_c4
  z_c1_c5
  z_c1_dN
  z_c2_c1
  z_c2_c3
  z_c2_c4
  z_c2_c5
  z_c2_dN
  z_c3_c1
  z_c3_c2
  z_c3_c4
  z_c3_c5
  z_c3_dN
  z_c4_c1
  z_c4_c2
  z_c4_c3
  z_c4_c5
  z_c4_dN
  z_c5_c1
  z_c5_c2
  z_c5_c3
  z_c5_c4
  z_c5_dN
  z_d0_c1
  z_d0_c2
  z_d0_c3
  z_d0_c4
  z_d0_c5
End
